ampl: model socpsdp.mod; data q1.dat; solve; display X;
CPLEX 12.7.1.0: CPXPARAM_Simplex_Display                         0
CPXPARAM_MIP_Display                             0
CPXPARAM_Barrier_Display                         0
optimal solution; objective 1.95481792e-06
33 barrier iterations
No basis.
X :=
1 1   946464
1 2        0
1 3        0.752775
2 1        0
2 2   946463
2 3        0.747225
3 1        0.752775
3 2        0.747225
3 3        9.77409e-07
;

